(declare-const a Real)
(declare-const b Real)
(declare-const c Real)
(assert (= (* a b c) 1))
(assert (> a 0))
(assert (> b 0))
(assert (> c 0))
(assert (not (<= (+ (* 277488 (pow (+ a b) 4)) (* (/ -1 25539328) (pow (+ (* 11123072 (pow a 2)) (* 14416256 (pow b 2))) 2)) (* -28311552 (pow a (pow 3 -1)) (pow b (/ 11 3))) (* -14155776 (pow a (/ 10 3)) (pow b (/ 2 3))) (* 14334464 b (pow a 3)) (* 49232384 a (pow b 3))) 0)))
(check-sat)
(get-model)
(exit)